phonon calc.
&inputph
 outdir="../tmp/",
 prefix="si",
 tr2_ph = 1d-14,
 ldisp = .true.,
 nq1=4, nq2=4, nq3=4,
 amass(1)=28.0855,
 fildyn='si.dyn',
/
