phonon calc.
&inputph
 outdir="../tmp/",
 prefix="si",
 tr2_ph = 1d-14,
 ldisp = .false.,
 trans = .true.,
 amass(1)=28.0855,
 fildyn='si0.dyn',
/
0.0 0.0 0.0
